NAME : P133222.34639.tour
COMMENT : Length = 34639
COMMENT : Found by LKH-3 [Keld Helsgaun] Tue Dec 17 14:07:49 2024
TYPE : TOUR
DIMENSION : 190
TOUR_SECTION
1
171
2
172
3
173
4
174
5
84
91
108
111
87
106
96
81
93
83
100
97
92
90
95
98
109
82
88
105
107
94
99
102
85
89
86
101
104
103
110
175
6
176
7
177
8
178
9
22
69
64
53
61
55
58
51
79
75
73
70
50
67
77
48
49
54
66
74
57
68
71
63
76
65
56
78
52
62
60
72
59
80
179
10
180
11
181
12
32
33
41
31
40
23
30
43
47
29
24
45
46
37
27
39
44
25
28
38
26
34
42
36
35
182
13
183
14
184
15
122
127
130
112
115
126
134
114
135
113
125
129
124
121
140
133
139
138
116
137
131
120
117
128
136
119
118
123
132
185
16
186
17
21
158
157
147
166
162
143
164
159
149
160
150
161
169
170
145
154
152
142
155
167
148
141
146
168
151
144
163
156
165
153
187
18
188
19
189
20
190
-1
EOF
